NAME : Mitra-2-02
TYPE : VRPSPD
DIMENSION : 20
VEHICLES : 10
CAPACITY : 10
EDGE_WEIGHT_TYPE : EXPLICIT
EDGE_WEIGHT_FORMAT : FULL_MATRIX
EDGE_WEIGHT_SECTION
0 10 11 12 13 14 15 16 17 18 19 20 21 22 23 24 25 26 27 28 
10 0 10 11 12 13 14 15 16 17 18 19 20 21 22 23 24 25 26 27 
11 10 0 10 11 12 13 14 15 16 17 18 19 20 21 22 23 24 25 26 
12 11 10 0 10 11 12 13 14 15 16 17 18 19 20 21 22 23 24 25 
13 12 11 10 0 10 11 12 13 14 15 16 17 18 19 20 21 22 23 24 
14 13 12 11 10 0 10 11 12 13 14 15 16 17 18 19 20 21 22 23 
15 14 13 12 11 10 0 10 11 12 13 14 15 16 17 18 19 20 21 22 
16 15 14 13 12 11 10 0 10 11 12 13 14 15 16 17 18 19 20 21 
17 16 15 14 13 12 11 10 0 10 11 12 13 14 15 16 17 18 19 20 
18 17 16 15 14 13 12 11 10 0 10 11 12 13 14 15 16 17 18 19 
19 18 17 16 15 14 13 12 11 10 0 10 11 12 13 14 15 16 17 18 
20 19 18 17 16 15 14 13 12 11 10 0 10 11 12 13 14 15 16 17 
21 20 19 18 17 16 15 14 13 12 11 10 0 10 11 12 13 14 15 16 
22 21 20 19 18 17 16 15 14 13 12 11 10 0 10 11 12 13 14 15 
23 22 21 20 19 18 17 16 15 14 13 12 11 10 0 10 11 12 13 14 
24 23 22 21 20 19 18 17 16 15 14 13 12 11 10 0 10 11 12 13 
25 24 23 22 21 20 19 18 17 16 15 14 13 12 11 10 0 10 11 12 
26 25 24 23 22 21 20 19 18 17 16 15 14 13 12 11 10 0 10 11 
27 26 25 24 23 22 21 20 19 18 17 16 15 14 13 12 11 10 0 10 
28 27 26 25 24 23 22 21 20 19 18 17 16 15 14 13 11 11 10 0 
PICKUP_AND_DELIVERY_SECTION
1 0 0 10000000 0 0 0
2 0 0 10000000 0 5 5
3 0 0 10000000 0 5 5
4 0 0 10000000 0 5 5
5 0 0 10000000 0 5 5
6 0 0 10000000 0 5 5
7 0 0 10000000 0 5 5
8 0 0 10000000 0 5 5
9 0 0 10000000 0 5 5
10 0 0 10000000 0 5 5
11 0 0 10000000 0 5 5
12 0 0 10000000 0 5 5
13 0 0 10000000 0 5 5
14 0 0 10000000 0 5 5
15 0 0 10000000 0 5 5
16 0 0 10000000 0 5 5
17 0 0 10000000 0 5 5
18 0 0 10000000 0 5 5
19 0 0 10000000 0 5 5
20 0 0 10000000 0 5 5
DEPOT_SECTION
1 
-1
EOF
